qbf_easy_train/easy_3498_SAT.qdimacs
p cnf 24 59
a 8 1 13 0
e 2 3 4 5 6 7 9 10 11 12 14 15 16 17 18 19 20 21 22 23 24 0
-3 -1 0
-3 -2 0
1 2 3 0
5 -3 0
5 -4 0
3 4 -5 0
8 -6 0
8 -7 0
6 7 -8 0
9 -2 0
9 -8 0
2 8 -9 0
10 7 0
10 -1 0
-7 1 -10 0
-10 11 -12 0
10 -11 -12 0
-10 -11 12 0
10 11 12 0
13 -3 0
13 -12 0
3 12 -13 0
14 -13 0
14 2 0
13 -2 -14 0
-9 -14 -15 0
9 14 -15 0
-9 14 15 0
9 -14 15 0
-10 -16 -17 0
10 16 -17 0
-10 16 17 0
10 -16 17 0
-18 15 0
-18 17 0
-15 -17 18 0
19 5 0
19 18 0
-5 -18 -19 0
-11 -16 -20 0
11 16 -20 0
-11 16 20 0
11 -16 20 0
-22 21 0
-22 -13 0
-21 13 22 0
-20 22 -23 0
20 -22 -23 0
-20 -22 23 0
20 22 23 0
24 19 0
24 23 0
-19 -23 -24 0
7 -19 -5 20 -22 0
-18 -14 -6 -9 24 -19 0
-17 10 -15 22 -5 14 4 0
10 -2 -20 -14 23 6 0
4 24 1 0
24 0
