sat_easy_train/easy_3498_SAT.dimacs
p cnf 134 460
3 -1 0
3 2 0
1 -2 -3 0
-4 3 0
-4 -1 0
-3 1 4 0
-6 5 0
-6 -1 0
-5 1 6 0
9 7 0
9 8 0
-7 -8 -9 0
-10 -9 0
-10 1 0
9 -1 10 0
6 -10 -11 0
-6 10 -11 0
6 10 11 0
-6 -10 11 0
-4 -11 -12 0
4 11 -12 0
-4 11 12 0
4 -11 12 0
15 13 0
15 14 0
-13 -14 -15 0
-15 16 -17 0
15 -16 -17 0
-15 -16 17 0
15 16 17 0
-17 -13 -18 0
17 13 -18 0
-17 13 18 0
17 -13 18 0
19 -12 0
19 -18 0
12 18 -19 0
-2 5 -21 0
2 -5 -21 0
-2 -5 21 0
2 5 21 0
20 -2 -22 0
-20 2 -22 0
20 2 22 0
-20 -2 22 0
21 22 -23 0
-21 -22 -23 0
21 -22 23 0
-21 22 23 0
24 -20 0
24 23 0
20 -23 -24 0
19 24 -25 0
-19 -24 -25 0
19 -24 25 0
-19 24 25 0
-27 26 0
-27 -10 0
-26 10 27 0
-27 9 -28 0
27 -9 -28 0
-27 -9 28 0
27 9 28 0
-29 21 -30 0
29 -21 -30 0
-29 -21 30 0
29 21 30 0
-29 30 -31 0
29 -30 -31 0
-29 -30 31 0
29 30 31 0
31 -7 -32 0
-31 7 -32 0
31 7 32 0
-31 -7 32 0
-33 8 0
-33 2 0
-8 -2 33 0
26 33 -34 0
-26 -33 -34 0
26 -33 34 0
-26 33 34 0
-35 -34 0
-35 -1 0
34 1 35 0
36 -32 0
36 -35 0
32 35 -36 0
3 22 -37 0
-3 -22 -37 0
3 -22 37 0
-3 22 37 0
-38 36 0
-38 37 0
-36 -37 38 0
-39 -28 0
-39 38 0
28 -38 39 0
-25 -39 -40 0
25 39 -40 0
-25 39 40 0
25 -39 40 0
31 -13 -41 0
-31 13 -41 0
31 13 41 0
-31 -13 41 0
-42 -41 0
-42 12 0
41 -12 42 0
43 -22 0
43 -2 0
22 2 -43 0
-42 43 -44 0
42 -43 -44 0
-42 -43 44 0
42 43 44 0
-45 40 0
-45 -44 0
-40 44 45 0
-46 -4 0
-46 2 0
4 -2 46 0
46 -17 -47 0
-46 17 -47 0
46 17 47 0
-46 -17 47 0
-49 -3 0
-49 -48 0
3 48 49 0
-50 49 0
-50 22 0
-49 -22 50 0
-47 50 -51 0
47 -50 -51 0
-47 -50 51 0
47 50 51 0
52 -26 0
52 -51 0
26 51 -52 0
-55 -53 0
-55 54 0
53 -54 55 0
34 20 -56 0
-34 -20 -56 0
34 -20 56 0
-34 20 56 0
56 5 -57 0
-56 -5 -57 0
56 -5 57 0
-56 5 57 0
55 -57 -58 0
-55 57 -58 0
55 57 58 0
-55 -57 58 0
59 52 0
59 -58 0
-52 58 -59 0
-60 -26 0
-60 -26 0
26 60 0
59 -60 -61 0
-59 60 -61 0
59 60 61 0
-59 -60 61 0
62 45 0
62 61 0
-45 -61 -62 0
-3 26 -63 0
3 -26 -63 0
-3 -26 63 0
3 26 63 0
-64 29 0
-64 -3 0
-29 3 64 0
63 64 -65 0
-63 -64 -65 0
63 -64 65 0
-63 64 65 0
-3 -66 -67 0
3 66 -67 0
-3 66 67 0
3 -66 67 0
-68 -53 0
-68 -8 0
53 8 68 0
69 -68 0
69 16 0
68 -16 -69 0
70 -67 0
70 -69 0
67 69 -70 0
-71 70 0
-71 -9 0
-70 9 71 0
-72 29 0
-72 30 0
-29 -30 72 0
-72 30 -73 0
72 -30 -73 0
-72 -30 73 0
72 30 73 0
74 13 0
74 73 0
-13 -73 -74 0
74 17 -75 0
-74 -17 -75 0
74 -17 75 0
-74 17 75 0
75 26 -76 0
-75 -26 -76 0
75 -26 76 0
-75 26 76 0
-77 76 0
-77 -48 0
-76 48 77 0
-78 71 0
-78 -77 0
-71 77 78 0
-80 -79 0
-80 13 0
79 -13 80 0
-81 -46 0
-81 -80 0
46 80 81 0
-82 78 0
-82 81 0
-78 -81 82 0
-83 -65 0
-83 82 0
65 -82 83 0
14 70 -84 0
-14 -70 -84 0
14 -70 84 0
-14 70 84 0
85 1 0
85 79 0
-1 -79 -85 0
-86 -85 0
-86 2 0
85 -2 86 0
86 16 -87 0
-86 -16 -87 0
86 -16 87 0
-86 16 87 0
42 87 -88 0
-42 -87 -88 0
42 -87 88 0
-42 87 88 0
89 -84 0
89 -88 0
84 88 -89 0
-90 -66 0
-90 33 0
66 -33 90 0
-26 11 -91 0
26 -11 -91 0
-26 -11 91 0
26 11 91 0
90 91 -92 0
-90 -91 -92 0
90 -91 92 0
-90 91 92 0
-93 4 0
-93 -9 0
-4 9 93 0
-94 93 0
-94 -4 0
-93 4 94 0
-95 5 0
-95 34 0
-5 -34 95 0
96 7 0
96 -95 0
-7 95 -96 0
-96 -48 -97 0
96 48 -97 0
-96 48 97 0
96 -48 97 0
-98 -97 0
-98 -50 0
97 50 98 0
29 -85 -99 0
-29 85 -99 0
29 85 99 0
-29 -85 99 0
-100 98 0
-100 99 0
-98 -99 100 0
101 -94 0
101 100 0
94 -100 -101 0
102 -92 0
102 101 0
92 -101 -102 0
-103 -89 0
-103 -102 0
89 102 103 0
-104 -83 0
-104 -103 0
83 103 104 0
105 33 0
105 2 0
-33 -2 -105 0
-80 105 -106 0
80 -105 -106 0
-80 -105 106 0
80 105 106 0
107 -48 0
107 -106 0
48 106 -107 0
108 -21 0
108 20 0
21 -20 -108 0
-109 107 0
-109 108 0
-107 -108 109 0
110 -72 0
110 33 0
72 -33 -110 0
-111 -70 0
-111 -56 0
70 56 111 0
-110 111 -112 0
110 -111 -112 0
-110 -111 112 0
110 111 112 0
-113 -29 0
-113 46 0
29 -46 113 0
49 113 -114 0
-49 -113 -114 0
49 -113 114 0
-49 113 114 0
-48 -72 -115 0
48 72 -115 0
-48 72 115 0
48 -72 115 0
1 115 -116 0
-1 -115 -116 0
1 -115 116 0
-1 115 116 0
117 -114 0
117 116 0
114 -116 -117 0
-118 -29 0
-118 79 0
29 -79 118 0
6 118 -119 0
-6 -118 -119 0
6 -118 119 0
-6 118 119 0
120 119 0
120 -66 0
-119 66 -120 0
-121 21 0
-121 -120 0
-21 120 121 0
117 121 -122 0
-117 -121 -122 0
117 -121 122 0
-117 121 122 0
123 119 0
123 106 0
-119 -106 -123 0
-124 -11 0
-124 -21 0
11 21 124 0
-125 56 0
-125 66 0
-56 -66 125 0
126 124 0
126 -125 0
-124 125 -126 0
127 -123 0
127 126 0
123 -126 -127 0
128 122 0
128 -127 0
-122 127 -128 0
-129 -18 0
-129 -12 0
18 12 129 0
-130 128 0
-130 -129 0
-128 129 130 0
112 130 -131 0
-112 -130 -131 0
112 -130 131 0
-112 130 131 0
-132 109 0
-132 -131 0
-109 131 132 0
133 104 0
133 -132 0
-104 132 -133 0
-62 133 -134 0
62 -133 -134 0
-62 -133 134 0
62 133 134 0
113 105 37 0
-121 13 0
55 -109 52 13 0
50 -129 107 -96 -69 0
113 42 1 8 -65 88 0
-47 93 37 123 -126 0
24 -47 0
124 -94 -102 -2 0
-28 16 -17 0
-18 -126 70 117 8 94 0
5 -41 -60 -64 55 -70 0
-83 98 39 -9 -46 0
122 -7 -27 47 36 -99 0
-125 19 0
-65 97 0
23 -133 -13 -4 -41 11 0
2 94 111 103 0
-15 89 -121 -6 132 50 0
-32 65 16 82 -52 0
105 104 -117 -89 -48 0
70 64 130 50 -83 0
-111 72 103 106 0
-123 128 63 58 0
-85 -47 84 0
-132 95 25 -87 -134 0
91 -108 37 0
-71 -109 126 27 0
29 -55 -113 0
-30 132 -3 0
-31 70 132 0
-73 -14 43 -124 -47 -32 0
-12 -96 -65 66 107 -100 0
-49 -42 -81 -20 -113 0
-94 -51 98 -96 -97 0
-95 -89 56 112 83 52 0
114 -106 100 -124 0
74 75 37 80 0
-90 -2 72 0
106 32 48 -104 23 -109 0
105 130 0
-49 37 34 0
33 -134 54 -58 0
77 3 0
-130 3 71 -48 -25 103 0
-131 -54 9 -96 114 0
-95 -110 -118 2 -102 -69 0
95 -30 0
-116 -69 0
72 95 67 0
23 30 0
64 106 0
-101 -27 38 -5 -89 0
56 82 -99 -120 22 68 0
119 126 -70 0
-35 62 9 -95 0
83 -91 -84 25 0
66 123 24 0
-71 -133 -40 -125 -21 0
57 -22 0
-122 88 127 76 -107 0
134 0
